data/rand/rand_089.gr
p tdp 15 39
1 2
1 4
1 6
1 10
1 11
1 14
2 3
2 4
2 6
3 7
3 11
3 12
4 7
4 8
4 9
4 10
4 11
4 12
4 13
4 14
5 6
5 10
5 13
6 8
6 9
7 11
7 12
8 9
8 10
8 14
10 11
10 12
10 14
10 15
11 13
11 14
11 15
12 14
14 15
