solutions/best/rand/rand_089.sol
8
6
0
14
2
6
14
3
6
8
4
10
7
5
11
14
